problems/csplib-prob030/BalancedAcademicCurriculumProblem-models/compact/O0/minion/model-bacp-11-solution000001.eprime-solution
language ESSENCE' 1.0

letting curr_Function1D be
        [1, 1, 1, 10, 1, 9, 2, 8, 8, 8, 8, 8, 7, 7, 7, 1, 7, 7, 6, 6, 5, 5, 6, 2, 4, 5, 5, 4, 4, 4, 4, 3, 3, 2, 2, 2, 3,
         3, 2, 3, 3, 1, 2, 1, 2, 9, 10, 1, 1, 1;
             int(1..50)]
