problems/csplib-prob030/BalancedAcademicCurriculumProblem-models/compact/O2/minion/model-bacp-11-solution000001.solution
language Essence 1.3

letting curr be
        function(1 --> 1, 2 --> 1, 3 --> 1, 4 --> 10, 5 --> 1, 6 --> 9, 7 --> 2, 8 --> 8, 9 --> 8, 10 --> 8, 11 --> 8,
                 12 --> 8, 13 --> 7, 14 --> 7, 15 --> 7, 16 --> 1, 17 --> 7, 18 --> 7, 19 --> 6, 20 --> 6, 21 --> 5,
                 22 --> 5, 23 --> 6, 24 --> 2, 25 --> 4, 26 --> 5, 27 --> 5, 28 --> 4, 29 --> 4, 30 --> 4, 31 --> 4,
                 32 --> 3, 33 --> 3, 34 --> 2, 35 --> 2, 36 --> 2, 37 --> 3, 38 --> 3, 39 --> 2, 40 --> 3, 41 --> 3,
                 42 --> 1, 43 --> 2, 44 --> 1, 45 --> 2, 46 --> 9, 47 --> 10, 48 --> 1, 49 --> 1, 50 --> 1)
